c WARNING: for repeatability, setting FPU to use double precision
d VARIABLES            128026       
d CONSTRAINTS          541161       
c ============================[ Problem Statistics ]=============================
c |                                                                             |
c |  Number of variables:        128026                                         |
c |  Number of clauses:          541161                                         |
c |  Parse time:                   0.09 s                                       |
c |                                                                             |
c ============================[ Search Statistics ]==============================
c | Conflicts |          ORIGINAL         |          LEARNT          | Progress |
c |           |    Vars  Clauses Literals |    Limit  Clauses Lit/Cl |          |
c ===============================================================================
c |       100 |  101460   473715  1150893 |   173695      100     24 | 20.751 % |
c |       250 |  101460   473715  1150893 |   191065      250     23 | 20.750 % |
c |       475 |  101460   473715  1150893 |   210171      475     28 | 20.750 % |
c |       812 |  101460   473715  1150893 |   231188      812     28 | 20.750 % |
c |      1318 |  101460   473715  1150893 |   254307     1318     28 | 20.750 % |
c |      2077 |  101460   473715  1150893 |   279738     2077     28 | 20.750 % |
c |      3216 |  101459   473704  1150867 |   307712     3214     28 | 20.751 % |
c ===============================================================================
c restarts              : 22
c conflicts             : 4403           (4605 /sec)
c decisions             : 27526          (0.00 % random) (28791 /sec)
c propagations          : 6430012        (6725539 /sec)
c conflict literals     : 119120         (19.82 % deleted)
d RESTARTS             22
d FAILURES             4403         
d NODES                27526        
d BACKTRACKS           27526        
d PROPAGATIONS         6430012      
d NOGOODSIZE           27.05 
d MEMORY               46.00 
d TIME                 0.956059 

s UNSATISFIABLE
